496483
496483
472275
472275
472275
469322
469322
469322
466860
461881
456830
456830
447396
442471
435600
435600
421669
421669
421669
415568
415568
415568
414062
414062
414062
413962
405828
401340
401340
401340
401340
401340
399628
399628
399628
396209
396209
395219
395219
393202
393202
392351
392351
392081
392081
387655
386524
386524
386524
386524
386524
377474
377474
377474
377474
377474
376048
374670
373861
370758
370758
369563
369563
369563
369563
369332
367588
367588
367588
367200
364086
360773
360773
360773
360773
360773
360773
359579
359579
359579
359579
359579
353451
353451
353451
352502
352502
349152
349152
348620
348620
348620
348620
347323
346652
346652
346652
346652
345964
345964
